
Welcome to IBM(R) ILOG(R) CPLEX(R) Interactive Optimizer 22.1.1.0
  with Simplex, Mixed Integer & Barrier Optimizers
5725-A06 5725-A29 5724-Y48 5724-Y49 5724-Y54 5724-Y55 5655-Y21
Copyright IBM Corp. 1988, 2022.  All Rights Reserved.

Type 'help' for a list of available commands.
Type 'help' followed by a command name for more
information on commands.

CPLEX> Selected objective sense:  MINIMIZE
Selected objective  name:  00000000
Selected RHS        name:  RHS1
Selected bound      name:  BOUND
Problem 'ee.mps' read.
Read time = 0.02 sec. (3.14 ticks)
CPLEX> New value for time limit in seconds: 7200
CPLEX> New value for parallel optimization mode: -1
CPLEX> New value for default parallel thread count: 40
CPLEX> New value for mixed integer optimality gap tolerance: 1e-13
CPLEX> Version identifier: 22.1.1.0 | 2022-11-28 | 9160aff4d
CPXPARAM_Threads                                 40
CPXPARAM_Parallel                                -1
CPXPARAM_TimeLimit                               7200
CPXPARAM_MIP_Tolerances_MIPGap                   1e-13
Found incumbent of value 0.000000 after 0.00 sec. (0.31 ticks)
Tried aggregator 2 times.
MIP Presolve eliminated 183 rows and 2745 columns.
MIP Presolve modified 5862 coefficients.
Aggregator did 713 substitutions.
Reduced MIP has 3624 rows, 7744 columns, and 28666 nonzeros.
Reduced MIP has 7744 binaries, 0 generals, 0 SOSs, and 0 indicators.
Presolve time = 0.06 sec. (68.79 ticks)
Probing time = 0.03 sec. (5.31 ticks)
Tried aggregator 1 time.
Detecting symmetries...
Reduced MIP has 3624 rows, 7744 columns, and 28666 nonzeros.
Reduced MIP has 7744 binaries, 0 generals, 0 SOSs, and 0 indicators.
Presolve time = 0.02 sec. (21.96 ticks)
Probing time = 0.02 sec. (5.09 ticks)
Clique table members: 18557.
MIP emphasis: balance optimality and feasibility.
MIP search method: dynamic search.
Parallel mode: opportunistic, using up to 40 threads.
Root relaxation solution time = 0.08 sec. (61.68 ticks)

        Nodes                                         Cuts/
   Node  Left     Objective  IInf  Best Integer    Best Bound    ItCnt     Gap

*     0+    0                            0.0000  -1.31000e+13              --- 
*     0+    0                      -4.40000e+12  -1.31000e+13           197.73%
      0     0  -1.30900e+13    76  -4.40000e+12  -1.30900e+13     1683  197.50%
*     0+    0                      -1.30900e+13  -1.30900e+13             0.00%
      0     0  -1.30900e+13   150  -1.30900e+13      Cuts: 68     1961    0.00%
*     0+    0                      -1.30900e+13  -1.30900e+13             0.00%
      0     0  -1.30900e+13   184  -1.30900e+13      Cuts: 79     2458    0.00%
*     0+    0                      -1.30900e+13  -1.30900e+13             0.00%
*     0+    0                      -1.30900e+13  -1.30900e+13             0.00%
*     0+    0                      -1.30900e+13  -1.30900e+13             0.00%
      0     2  -1.30900e+13   172  -1.30900e+13  -1.30900e+13     2536    0.00%
Elapsed time = 2.14 sec. (1204.98 ticks, tree = 0.02 MB, solutions = 7)
*    22+   28                      -1.30900e+13  -1.30900e+13             0.00%
*   154    67      integral     0  -1.30900e+13  -1.30900e+13    57542    0.00%
    194    35  -1.30900e+13   201  -1.30900e+13  -1.30900e+13    36942    0.00%
    570    73  -1.30900e+13   151  -1.30900e+13  -1.30900e+13    73337    0.00%
   1079    55  -1.30900e+13   220  -1.30900e+13  -1.30900e+13    62442    0.00%
   1547   129  -1.30900e+13   240  -1.30900e+13  -1.30900e+13   136535    0.00%
   2058   150  -1.30900e+13   147  -1.30900e+13  -1.30900e+13   200220    0.00%
   2617   207  -1.30900e+13   190  -1.30900e+13  -1.30900e+13   256182    0.00%
   3233   191  -1.30900e+13   244  -1.30900e+13  -1.30900e+13   219572    0.00%
   4009   254  -1.30900e+13   185  -1.30900e+13  -1.30900e+13   282796    0.00%
   4975   246    infeasible        -1.30900e+13  -1.30900e+13   276018    0.00%
   8702   276  -1.30900e+13   303  -1.30900e+13  -1.30900e+13   965128    0.00%
Elapsed time = 8.54 sec. (4306.87 ticks, tree = 0.60 MB, solutions = 20)
  11520   583  -1.30900e+13   143  -1.30900e+13  -1.30900e+13   758421    0.00%
  13027   236  -1.30900e+13   229  -1.30900e+13  -1.30900e+13   997382    0.00%

Performing restart 1

Repeating presolve.
Tried aggregator 3 times.
MIP Presolve eliminated 122 rows and 566 columns.
MIP Presolve added 4 rows and 0 columns.
MIP Presolve modified 1587 coefficients.
Aggregator did 121 substitutions.
Reduced MIP has 3341 rows, 7044 columns, and 25718 nonzeros.
Reduced MIP has 7044 binaries, 0 generals, 0 SOSs, and 0 indicators.
Presolve time = 0.09 sec. (91.88 ticks)
Tried aggregator 2 times.
MIP Presolve eliminated 33 rows and 51 columns.
MIP Presolve modified 35 coefficients.
Aggregator did 13 substitutions.
Reduced MIP has 3295 rows, 6964 columns, and 25423 nonzeros.
Reduced MIP has 6964 binaries, 0 generals, 0 SOSs, and 0 indicators.
Presolve time = 0.05 sec. (43.38 ticks)
Tried aggregator 1 time.
Reduced MIP has 3295 rows, 6964 columns, and 25423 nonzeros.
Reduced MIP has 6964 binaries, 0 generals, 0 SOSs, and 0 indicators.
Presolve time = 0.03 sec. (18.66 ticks)
Represolve time = 0.37 sec. (250.27 ticks)
  13115     0  -1.30900e+13   271  -1.30900e+13      Cuts: 61  1154667    0.00%
  13115     0  -1.30900e+13   209  -1.30900e+13      Cuts: 50  1155126    0.00%
  13115     0  -1.30900e+13   251  -1.30900e+13      Cuts: 65  1155391    0.00%
  13115     0  -1.30900e+13   339  -1.30900e+13      Cuts: 61  1156248    0.00%
  13115     0  -1.30900e+13   277  -1.30900e+13      Cuts: 72  1156895    0.00%
  13115     0  -1.30900e+13   309  -1.30900e+13      Cuts: 67  1157700    0.00%
  13115     0  -1.30900e+13   356  -1.30900e+13      Cuts: 78  1158516    0.00%
  13115     0  -1.30900e+13   367  -1.30900e+13      Cuts: 64  1158959    0.00%
  13115    11        cutoff        -1.30900e+13  -1.30900e+13  1167172    0.00%
  13211     4  -1.30900e+13   322  -1.30900e+13  -1.30900e+13  1161086    0.00%

GUB cover cuts applied:  5
Clique cuts applied:  13
Cover cuts applied:  194
Flow cuts applied:  1
Mixed integer rounding cuts applied:  14
Zero-half cuts applied:  43
Lift and project cuts applied:  4
Gomory fractional cuts applied:  26

Root node processing (before b&c):
  Real time             =    1.36 sec. (1203.59 ticks)
Parallel b&c, 40 threads:
  Real time             =   15.80 sec. (10921.63 ticks)
  Sync time (average)   =    3.63 sec.
  Wait time (average)   =    0.14 sec.
                          ------------
Total (root+branch&cut) =   17.17 sec. (12125.22 ticks)

Solution pool: 20 solutions saved.

MIP - Integer optimal solution:  Objective = -1.3089998790e+13
Solution time =   17.28 sec.  Iterations = 1169629  Nodes = 13227
Deterministic time = 12125.25 ticks  (701.78 ticks/sec)

CPLEX> Solution 'p21' written to file 'ee.sol'.
CPLEX> 